
Gurobi 13.0.0 (linux64) logging started Thu Jan 15 01:34:22 2026

Set parameter LogFile to value "../experiments/network-n_40_s_1_rp_0-app_set-id_36_17_apps/submip_40_epr1_model_gurobi.log"
Set parameter TimeLimit to value 8.7144326220100629e+02
Gurobi Optimizer version 13.0.0 build v13.0.0rc1 (linux64 - "Ubuntu 24.04.3 LTS")

CPU model: Intel(R) Core(TM) Ultra 7 165H, instruction set [SSE2|AVX|AVX2]
Thread count: 22 physical cores, 22 logical processors, using up to 22 threads

Non-default parameters:
TimeLimit  8.7144326220100629e+02
LogToConsole  0

Academic license 2539022 - for non-commercial use only - registered to al___@studenti.unimi.it
Optimize a model with 11188 rows, 4400 columns and 28145 nonzeros (Min)
Model fingerprint: 0x320cd23c
Model has 4400 linear objective coefficients
Model has 128 quadratic constraints
Variable types: 0 continuous, 4400 integer (4400 binary)
Coefficient statistics:
  Matrix range     [1e+00, 9e+02]
  QMatrix range    [5e+01, 2e+02]
  Objective range  [1e+01, 2e+02]
  Bounds range     [1e+00, 1e+00]
  RHS range        [1e+00, 1e+09]
  QRHS range       [1e+02, 6e+02]
Presolve removed 10935 rows and 3727 columns
Presolve time: 0.04s
Presolved: 2855 rows, 3150 columns, 16946 nonzeros
Variable types: 1 continuous, 3149 integer (3149 binary)

Root relaxation: objective 4.197164e+03, 607 iterations, 0.02 seconds (0.03 work units)

    Nodes    |    Current Node    |     Objective Bounds      |     Work
 Expl Unexpl |  Obj  Depth IntInf | Incumbent    BestBd   Gap | It/Node Time

     0     0 4197.16399    0   96          - 4197.16399      -     -    0s
     0     0 infeasible    0               - infeasible      -     -    0s

Cutting planes:
  Gomory: 20
  Cover: 29
  Implied bound: 4
  Clique: 17
  MIR: 20
  Knapsack: 7
  StrongCG: 18
  GUB cover: 4
  Zero half: 14
  RLT: 88
  Relax-and-lift: 10
  BQP: 31

Explored 1 nodes (1331 simplex iterations) in 0.24 seconds (0.27 work units)
Thread count was 22 (of 22 available processors)

Solution count 0

Model is infeasible
Best objective -, best bound -, gap -

User-callback calls 923, time in user-callback 0.00 sec
